p cnf 21 8
a 1 0
e 2 3 4 0
a 5 6 7 8 9 0
e 10 0
a 11 12 13 0
e 14 15 0
a 16 0
e 17 18 19 0
a 20 0
e 21 0
4 10 2 9 8 0
-1 -9 7 19 -15 0
4 -17 -1 11 3 0
-9 -15 12 11 0
-7 20 2 12 0
12 -14 -21 -19 0
6 4 -17 8 0
20 -13 -10 -18 -21 0
